Maximize
 0
Subject To
 epc_0!1: +87.04234939011715 y_1!1_2!1 +41.84221533102982 y_1!2_2!1 +10.612530867038956 y_1!3_2!1 +89.04729695918803 y_1!4_2!1 -73.74082194563205 y_1!5_2!1 -82.483008159109 y_1!6_2!1 +27.69618104289728 y_1!1_2!2 -24.360708723428885 y_1!2_2!2 +97.23711440077147 y_1!3_2!2 +26.016724544394293 y_1!4_2!2 +85.33636438273012 y_1!5_2!2 -32.458883924018636 y_1!6_2!2 +14.85351251012581 y_1!1_2!3 -62.78834458349125 y_1!2_2!3 +67.20039305040791 y_1!3_2!3 -84.24960523077482 y_1!4_2!3 +49.13180344978554 y_1!5_2!3 -56.70445758549745 y_1!6_2!3 -88.20760203987514 y_1!1_2!4 -35.07029266167841 y_1!2_2!4 -2.266072062005179 y_1!3_2!4 +70.526748460481 y_1!4_2!4 +26.968436379021128 y_1!5_2!4 +69.3773740408754 y_1!6_2!4 +99.72470131801256 y_1!1_2!5 -52.71967418129697 y_1!2_2!5 -8.573300220611486 y_1!3_2!5 -7.737572869931512 y_1!4_2!5 -55.485573953749224 y_1!5_2!5 +44.81741274827917 y_1!6_2!5 +22.079071952100662 y_1!1_2!6 +29.529989494737322 y_1!2_2!6 +79.88595439488137 y_1!3_2!6 +57.17814680808564 y_1!4_2!6 -63.78969398063881 y_1!5_2!6 -50.11670522877698 y_1!6_2!6 + lambda_0!1 - mu_0 = 0
 epc_0!2: +31.133475419253443 y_1!1_2!1 -83.16518077132105 y_1!2_2!1 +76.00863190471344 y_1!3_2!1 +30.307244295991097 y_1!4_2!1 -72.94767396028399 y_1!5_2!1 +26.053161102946973 y_1!6_2!1 -46.284572990813125 y_1!1_2!2 +41.28410034133478 y_1!2_2!2 +89.83093015790806 y_1!3_2!2 -78.1691199208697 y_1!4_2!2 -18.96258774502546 y_1!5_2!2 +87.65222936407616 y_1!6_2!2 -81.09463344796688 y_1!1_2!3 +6.155357024377466 y_1!2_2!3 +74.15054652973112 y_1!3_2!3 +17.4507656835019 y_1!4_2!3 -49.892703985535206 y_1!5_2!3 +80.07764908504882 y_1!6_2!3 +67.67412808727809 y_1!1_2!4 +11.400406203010434 y_1!2_2!4 +64.23272527544913 y_1!3_2!4 -16.2093513272235 y_1!4_2!4 +41.580626218347874 y_1!5_2!4 +5.873400303728133 y_1!6_2!4 -68.29301563952728 y_1!1_2!5 +67.53000236835248 y_1!2_2!5 +64.27980409619414 y_1!3_2!5 -41.985539063211476 y_1!4_2!5 +16.00209242147139 y_1!5_2!5 +78.45402457452835 y_1!6_2!5 -0.46653383791981184 y_1!1_2!6 +63.16874271092004 y_1!2_2!6 -91.53713037872238 y_1!3_2!6 +98.6588951380484 y_1!4_2!6 +74.85694958399415 y_1!5_2!6 +84.77328087632182 y_1!6_2!6 + lambda_0!2 - mu_0 = 0
 epc_0!3: -50.24369374960431 y_1!1_2!1 +57.415335567077705 y_1!2_2!1 +26.76670294237556 y_1!3_2!1 +91.41968171554052 y_1!4_2!1 +8.732586786097897 y_1!5_2!1 +79.12682467547651 y_1!6_2!1 +80.89701380872981 y_1!1_2!2 -94.94690776116586 y_1!2_2!2 -79.07455913792828 y_1!3_2!2 +34.18831211700015 y_1!4_2!2 -37.538369718342636 y_1!5_2!2 +38.21319022714826 y_1!6_2!2 -66.59620552573304 y_1!1_2!3 -95.07613058967297 y_1!2_2!3 +94.71268260121118 y_1!3_2!3 -65.49264071268198 y_1!4_2!3 -55.96003963874458 y_1!5_2!3 +55.41328524732114 y_1!6_2!3 -81.80823342235759 y_1!1_2!4 -47.081140546887944 y_1!2_2!4 +29.418916731572352 y_1!3_2!4 +95.08551964488589 y_1!4_2!4 +2.7517624318154503 y_1!5_2!4 -36.34262796179979 y_1!6_2!4 -54.9257392889535 y_1!1_2!5 -48.44707303859863 y_1!2_2!5 +71.35845932189736 y_1!3_2!5 +73.95342876690313 y_1!4_2!5 -60.54296395592351 y_1!5_2!5 +56.59242514622568 y_1!6_2!5 +2.0781944035042983 y_1!1_2!6 -87.29709409603443 y_1!2_2!6 +73.0437575173921 y_1!3_2!6 -0.820100395607497 y_1!4_2!6 -75.34220649841379 y_1!5_2!6 -47.13211296082478 y_1!6_2!6 + lambda_0!3 - mu_0 = 0
 epc_0!4: +51.23052803411906 y_1!1_2!1 +86.78416377380807 y_1!2_2!1 +34.8714016458683 y_1!3_2!1 +40.014418131106964 y_1!4_2!1 -47.992158247870506 y_1!5_2!1 +49.08283934910969 y_1!6_2!1 +9.391538880599313 y_1!1_2!2 +21.971097946055536 y_1!2_2!2 +19.042633859803743 y_1!3_2!2 -65.90678573571608 y_1!4_2!2 +9.718034088370175 y_1!5_2!2 -23.671026878635274 y_1!6_2!2 +43.853973450865595 y_1!1_2!3 -44.626958481516255 y_1!2_2!3 -28.19948579016689 y_1!3_2!3 +33.39321033713125 y_1!4_2!3 +85.82962716545873 y_1!5_2!3 +90.28024487832016 y_1!6_2!3 +48.312614419036294 y_1!1_2!4 +69.31081041342432 y_1!2_2!4 +61.626730706422904 y_1!3_2!4 +25.834180348987815 y_1!4_2!4 +21.764804214395525 y_1!5_2!4 +38.632271567722285 y_1!6_2!4 -46.714141612416135 y_1!1_2!5 +64.89181249894281 y_1!2_2!5 -39.84127243976165 y_1!3_2!5 +22.266371554442642 y_1!4_2!5 +45.214685684535 y_1!5_2!5 +65.29511106346749 y_1!6_2!5 +50.33928222424865 y_1!1_2!6 -11.515798369040553 y_1!2_2!6 +50.1975388511097 y_1!3_2!6 -65.3541690536326 y_1!4_2!6 -5.799270233691757 y_1!5_2!6 -85.37117554186109 y_1!6_2!6 + lambda_0!4 - mu_0 = 0
 epc_0!5: -4.029249277700671 y_1!1_2!1 -58.00695064880941 y_1!2_2!1 +52.24490922353223 y_1!3_2!1 -69.30189791756317 y_1!4_2!1 +74.90972719599705 y_1!5_2!1 +71.74442229343276 y_1!6_2!1 +19.80171501146775 y_1!1_2!2 +60.06239663939505 y_1!2_2!2 -37.04137921825288 y_1!3_2!2 -11.515708240237473 y_1!4_2!2 -49.17768432041214 y_1!5_2!2 +15.624168445758514 y_1!6_2!2 -87.487685244063 y_1!1_2!3 -75.81158442932411 y_1!2_2!3 -76.05341917091482 y_1!3_2!3 -26.73692408396049 y_1!4_2!3 +98.93776941671459 y_1!5_2!3 +74.1006557820071 y_1!6_2!3 +98.99463234421626 y_1!1_2!4 -23.844310276651342 y_1!2_2!4 -98.59007254638676 y_1!3_2!4 +38.59489937753125 y_1!4_2!4 +44.317643338404025 y_1!5_2!4 +82.23432326742864 y_1!6_2!4 +77.75398992779978 y_1!1_2!5 -32.16761984598129 y_1!2_2!5 -8.641861043354908 y_1!3_2!5 -71.10560358098732 y_1!4_2!5 -37.79973704430291 y_1!5_2!5 -99.37934576817786 y_1!6_2!5 +70.32597863787709 y_1!1_2!6 -68.64338783179349 y_1!2_2!6 +64.95787428145456 y_1!3_2!6 +38.880512171456246 y_1!4_2!6 +30.896349197630656 y_1!5_2!6 -18.90985987708291 y_1!6_2!6 + lambda_0!5 - mu_0 = 0
 epc_0!6: +71.50613028725394 y_1!1_2!1 -97.00278573676857 y_1!2_2!1 +1.8969569516473541 y_1!3_2!1 -31.690923092609083 y_1!4_2!1 +16.068307671514475 y_1!5_2!1 -67.2546530696689 y_1!6_2!1 -39.41711890582476 y_1!1_2!2 -9.63639476954397 y_1!2_2!2 +82.43773228480254 y_1!3_2!2 -35.68411036556678 y_1!4_2!2 +89.27743641393027 y_1!5_2!2 +27.89305585561182 y_1!6_2!2 +72.37829190911964 y_1!1_2!3 -3.9297688520024963 y_1!2_2!3 -23.53272762815392 y_1!3_2!3 +75.23042785614996 y_1!4_2!3 +2.9785180858443 y_1!5_2!3 -23.09265655641319 y_1!6_2!3 -82.86077757488152 y_1!1_2!4 -99.19747993279793 y_1!2_2!4 +94.31578908650286 y_1!3_2!4 +72.99598888310874 y_1!4_2!4 +87.34027971604806 y_1!5_2!4 +87.18370223294235 y_1!6_2!4 -75.92387177354391 y_1!1_2!5 +39.93906429812486 y_1!2_2!5 +53.271270245649504 y_1!3_2!5 -24.590101542248306 y_1!4_2!5 +46.7858094420489 y_1!5_2!5 +60.526332811059405 y_1!6_2!5 +37.570456686730694 y_1!1_2!6 -1.290900251186784 y_1!2_2!6 +25.311024520081673 y_1!3_2!6 +58.23177115033994 y_1!4_2!6 +15.443330578060511 y_1!5_2!6 -59.1953692045317 y_1!6_2!6 + lambda_0!6 - mu_0 = 0
 dc_0: x_0!1 + x_0!2 + x_0!3 + x_0!4 + x_0!5 + x_0!6 = 1
 bc_0!1: lambda_0!1 +299.1040470861904 x_0!1 <= 299.1040470861904
 bc_0!2: lambda_0!2 +299.1040470861904 x_0!2 <= 299.1040470861904
 bc_0!3: lambda_0!3 +299.1040470861904 x_0!3 <= 299.1040470861904
 bc_0!4: lambda_0!4 +299.1040470861904 x_0!4 <= 299.1040470861904
 bc_0!5: lambda_0!5 +299.1040470861904 x_0!5 <= 299.1040470861904
 bc_0!6: lambda_0!6 +299.1040470861904 x_0!6 <= 299.1040470861904
 sum_0!1: y_1!1_2!1 - x_1!1 - x_2!1 >= -1
 idk_0!1!1: y_1!1_2!1 - x_1!1 <= 0
 idk_0!1!2: y_1!1_2!1 - x_2!1 <= 0
 sum_0!2: y_1!2_2!1 - x_1!2 - x_2!1 >= -1
 idk_0!2!1: y_1!2_2!1 - x_1!2 <= 0
 idk_0!2!2: y_1!2_2!1 - x_2!1 <= 0
 sum_0!3: y_1!3_2!1 - x_1!3 - x_2!1 >= -1
 idk_0!3!1: y_1!3_2!1 - x_1!3 <= 0
 idk_0!3!2: y_1!3_2!1 - x_2!1 <= 0
 sum_0!4: y_1!4_2!1 - x_1!4 - x_2!1 >= -1
 idk_0!4!1: y_1!4_2!1 - x_1!4 <= 0
 idk_0!4!2: y_1!4_2!1 - x_2!1 <= 0
 sum_0!5: y_1!5_2!1 - x_1!5 - x_2!1 >= -1
 idk_0!5!1: y_1!5_2!1 - x_1!5 <= 0
 idk_0!5!2: y_1!5_2!1 - x_2!1 <= 0
 sum_0!6: y_1!6_2!1 - x_1!6 - x_2!1 >= -1
 idk_0!6!1: y_1!6_2!1 - x_1!6 <= 0
 idk_0!6!2: y_1!6_2!1 - x_2!1 <= 0
 sum_0!7: y_1!1_2!2 - x_1!1 - x_2!2 >= -1
 idk_0!7!1: y_1!1_2!2 - x_1!1 <= 0
 idk_0!7!2: y_1!1_2!2 - x_2!2 <= 0
 sum_0!8: y_1!2_2!2 - x_1!2 - x_2!2 >= -1
 idk_0!8!1: y_1!2_2!2 - x_1!2 <= 0
 idk_0!8!2: y_1!2_2!2 - x_2!2 <= 0
 sum_0!9: y_1!3_2!2 - x_1!3 - x_2!2 >= -1
 idk_0!9!1: y_1!3_2!2 - x_1!3 <= 0
 idk_0!9!2: y_1!3_2!2 - x_2!2 <= 0
 sum_0!10: y_1!4_2!2 - x_1!4 - x_2!2 >= -1
 idk_0!10!1: y_1!4_2!2 - x_1!4 <= 0
 idk_0!10!2: y_1!4_2!2 - x_2!2 <= 0
 sum_0!11: y_1!5_2!2 - x_1!5 - x_2!2 >= -1
 idk_0!11!1: y_1!5_2!2 - x_1!5 <= 0
 idk_0!11!2: y_1!5_2!2 - x_2!2 <= 0
 sum_0!12: y_1!6_2!2 - x_1!6 - x_2!2 >= -1
 idk_0!12!1: y_1!6_2!2 - x_1!6 <= 0
 idk_0!12!2: y_1!6_2!2 - x_2!2 <= 0
 sum_0!13: y_1!1_2!3 - x_1!1 - x_2!3 >= -1
 idk_0!13!1: y_1!1_2!3 - x_1!1 <= 0
 idk_0!13!2: y_1!1_2!3 - x_2!3 <= 0
 sum_0!14: y_1!2_2!3 - x_1!2 - x_2!3 >= -1
 idk_0!14!1: y_1!2_2!3 - x_1!2 <= 0
 idk_0!14!2: y_1!2_2!3 - x_2!3 <= 0
 sum_0!15: y_1!3_2!3 - x_1!3 - x_2!3 >= -1
 idk_0!15!1: y_1!3_2!3 - x_1!3 <= 0
 idk_0!15!2: y_1!3_2!3 - x_2!3 <= 0
 sum_0!16: y_1!4_2!3 - x_1!4 - x_2!3 >= -1
 idk_0!16!1: y_1!4_2!3 - x_1!4 <= 0
 idk_0!16!2: y_1!4_2!3 - x_2!3 <= 0
 sum_0!17: y_1!5_2!3 - x_1!5 - x_2!3 >= -1
 idk_0!17!1: y_1!5_2!3 - x_1!5 <= 0
 idk_0!17!2: y_1!5_2!3 - x_2!3 <= 0
 sum_0!18: y_1!6_2!3 - x_1!6 - x_2!3 >= -1
 idk_0!18!1: y_1!6_2!3 - x_1!6 <= 0
 idk_0!18!2: y_1!6_2!3 - x_2!3 <= 0
 sum_0!19: y_1!1_2!4 - x_1!1 - x_2!4 >= -1
 idk_0!19!1: y_1!1_2!4 - x_1!1 <= 0
 idk_0!19!2: y_1!1_2!4 - x_2!4 <= 0
 sum_0!20: y_1!2_2!4 - x_1!2 - x_2!4 >= -1
 idk_0!20!1: y_1!2_2!4 - x_1!2 <= 0
 idk_0!20!2: y_1!2_2!4 - x_2!4 <= 0
 sum_0!21: y_1!3_2!4 - x_1!3 - x_2!4 >= -1
 idk_0!21!1: y_1!3_2!4 - x_1!3 <= 0
 idk_0!21!2: y_1!3_2!4 - x_2!4 <= 0
 sum_0!22: y_1!4_2!4 - x_1!4 - x_2!4 >= -1
 idk_0!22!1: y_1!4_2!4 - x_1!4 <= 0
 idk_0!22!2: y_1!4_2!4 - x_2!4 <= 0
 sum_0!23: y_1!5_2!4 - x_1!5 - x_2!4 >= -1
 idk_0!23!1: y_1!5_2!4 - x_1!5 <= 0
 idk_0!23!2: y_1!5_2!4 - x_2!4 <= 0
 sum_0!24: y_1!6_2!4 - x_1!6 - x_2!4 >= -1
 idk_0!24!1: y_1!6_2!4 - x_1!6 <= 0
 idk_0!24!2: y_1!6_2!4 - x_2!4 <= 0
 sum_0!25: y_1!1_2!5 - x_1!1 - x_2!5 >= -1
 idk_0!25!1: y_1!1_2!5 - x_1!1 <= 0
 idk_0!25!2: y_1!1_2!5 - x_2!5 <= 0
 sum_0!26: y_1!2_2!5 - x_1!2 - x_2!5 >= -1
 idk_0!26!1: y_1!2_2!5 - x_1!2 <= 0
 idk_0!26!2: y_1!2_2!5 - x_2!5 <= 0
 sum_0!27: y_1!3_2!5 - x_1!3 - x_2!5 >= -1
 idk_0!27!1: y_1!3_2!5 - x_1!3 <= 0
 idk_0!27!2: y_1!3_2!5 - x_2!5 <= 0
 sum_0!28: y_1!4_2!5 - x_1!4 - x_2!5 >= -1
 idk_0!28!1: y_1!4_2!5 - x_1!4 <= 0
 idk_0!28!2: y_1!4_2!5 - x_2!5 <= 0
 sum_0!29: y_1!5_2!5 - x_1!5 - x_2!5 >= -1
 idk_0!29!1: y_1!5_2!5 - x_1!5 <= 0
 idk_0!29!2: y_1!5_2!5 - x_2!5 <= 0
 sum_0!30: y_1!6_2!5 - x_1!6 - x_2!5 >= -1
 idk_0!30!1: y_1!6_2!5 - x_1!6 <= 0
 idk_0!30!2: y_1!6_2!5 - x_2!5 <= 0
 sum_0!31: y_1!1_2!6 - x_1!1 - x_2!6 >= -1
 idk_0!31!1: y_1!1_2!6 - x_1!1 <= 0
 idk_0!31!2: y_1!1_2!6 - x_2!6 <= 0
 sum_0!32: y_1!2_2!6 - x_1!2 - x_2!6 >= -1
 idk_0!32!1: y_1!2_2!6 - x_1!2 <= 0
 idk_0!32!2: y_1!2_2!6 - x_2!6 <= 0
 sum_0!33: y_1!3_2!6 - x_1!3 - x_2!6 >= -1
 idk_0!33!1: y_1!3_2!6 - x_1!3 <= 0
 idk_0!33!2: y_1!3_2!6 - x_2!6 <= 0
 sum_0!34: y_1!4_2!6 - x_1!4 - x_2!6 >= -1
 idk_0!34!1: y_1!4_2!6 - x_1!4 <= 0
 idk_0!34!2: y_1!4_2!6 - x_2!6 <= 0
 sum_0!35: y_1!5_2!6 - x_1!5 - x_2!6 >= -1
 idk_0!35!1: y_1!5_2!6 - x_1!5 <= 0
 idk_0!35!2: y_1!5_2!6 - x_2!6 <= 0
 sum_0!36: y_1!6_2!6 - x_1!6 - x_2!6 >= -1
 idk_0!36!1: y_1!6_2!6 - x_1!6 <= 0
 idk_0!36!2: y_1!6_2!6 - x_2!6 <= 0
 epc_1!1: -97.61232087147337 y_0!1_2!1 -45.81755422998213 y_0!2_2!1 -91.26056804866872 y_0!3_2!1 -94.17746930385158 y_0!4_2!1 +84.02542541427701 y_0!5_2!1 +15.498530239985868 y_0!6_2!1 +35.362701804997585 y_0!1_2!2 -41.41886194457696 y_0!2_2!2 +84.85463712481064 y_0!3_2!2 -2.2244407813763303 y_0!4_2!2 -76.56068383776753 y_0!5_2!2 -13.610764078182441 y_0!6_2!2 +90.47031575206688 y_0!1_2!3 +83.4026155342469 y_0!2_2!3 -5.762050035563135 y_0!3_2!3 -0.96809882235587 y_0!4_2!3 +61.12225335830067 y_0!5_2!3 +91.6458986799031 y_0!6_2!3 +83.10672907202562 y_0!1_2!4 -14.596412337935533 y_0!2_2!4 -35.77579498821362 y_0!3_2!4 -38.57519156550764 y_0!4_2!4 -27.20279114693757 y_0!5_2!4 -4.253902653729028 y_0!6_2!4 +3.085343631367138 y_0!1_2!5 +9.313551693551275 y_0!2_2!5 +47.99275047268614 y_0!3_2!5 -63.04444718213729 y_0!4_2!5 +56.86095621594254 y_0!5_2!5 -2.341926936372289 y_0!6_2!5 +91.33873987990759 y_0!1_2!6 -13.690848710179765 y_0!2_2!6 +62.52932468701954 y_0!3_2!6 +96.08105766772778 y_0!4_2!6 +93.22350699975257 y_0!5_2!6 -14.006696837171845 y_0!6_2!6 + lambda_1!1 - mu_1 = 0
 epc_1!2: -71.73531784896974 y_0!1_2!1 -98.1784405470217 y_0!2_2!1 -82.26470549070328 y_0!3_2!1 -60.655193184768194 y_0!4_2!1 +59.07545470516345 y_0!5_2!1 +84.70994576348701 y_0!6_2!1 +43.47668096562447 y_0!1_2!2 +78.94587234978226 y_0!2_2!2 +91.12643285966558 y_0!3_2!2 -69.60312589195057 y_0!4_2!2 -5.946066583796593 y_0!5_2!2 +67.88550473439057 y_0!6_2!2 -35.52051943536949 y_0!1_2!3 -72.05162034711235 y_0!2_2!3 +55.36735172321286 y_0!3_2!3 +87.82709881769856 y_0!4_2!3 +40.01533311525665 y_0!5_2!3 +2.9162502553190564 y_0!6_2!3 -22.840039358429777 y_0!1_2!4 -55.981934386353636 y_0!2_2!4 +20.307281005922945 y_0!3_2!4 -97.17880341606606 y_0!4_2!4 -65.59679089677341 y_0!5_2!4 -29.094346327804814 y_0!6_2!4 -47.57348610737757 y_0!1_2!5 -10.342889713214618 y_0!2_2!5 +53.76289135211567 y_0!3_2!5 -8.170568461304569 y_0!4_2!5 +74.45814502735811 y_0!5_2!5 -99.50819024645338 y_0!6_2!5 +65.93916365230976 y_0!1_2!6 -9.018375304481438 y_0!2_2!6 +41.53213151345045 y_0!3_2!6 -87.36061947728919 y_0!4_2!6 +26.522469297832245 y_0!5_2!6 +25.016378594753164 y_0!6_2!6 + lambda_1!2 - mu_1 = 0
 epc_1!3: -15.996796182465658 y_0!1_2!1 -12.635248026342438 y_0!2_2!1 -67.78036804013227 y_0!3_2!1 -15.776385563355547 y_0!4_2!1 +0.6242653553542539 y_0!5_2!1 -84.7437310088242 y_0!6_2!1 +35.86136392704847 y_0!1_2!2 +75.23541935792616 y_0!2_2!2 -74.6587488066055 y_0!3_2!2 +88.93245414553485 y_0!4_2!2 -78.97468267050334 y_0!5_2!2 -80.69831843457793 y_0!6_2!2 -94.37473156446829 y_0!1_2!3 +73.79578949486822 y_0!2_2!3 -60.432316522531 y_0!3_2!3 +88.94506587664384 y_0!4_2!3 -89.86764684474727 y_0!5_2!3 +58.476666703636056 y_0!6_2!3 -40.78009483871947 y_0!1_2!4 -16.732843713026597 y_0!2_2!4 -89.21184766471947 y_0!3_2!4 -64.2114107787931 y_0!4_2!4 +84.25835508997613 y_0!5_2!4 -44.282789068698094 y_0!6_2!4 +8.43853815236615 y_0!1_2!5 -57.32518130974431 y_0!2_2!5 +12.99622056460548 y_0!3_2!5 +43.7889535409997 y_0!4_2!5 +29.826695160131322 y_0!5_2!5 +60.429387531546155 y_0!6_2!5 -70.35569525304304 y_0!1_2!6 -58.25301146607864 y_0!2_2!6 -49.672870092057984 y_0!3_2!6 +93.5023796379069 y_0!4_2!6 +20.500507811339716 y_0!5_2!6 +15.534475306701893 y_0!6_2!6 + lambda_1!3 - mu_1 = 0
 epc_1!4: +12.738122816892727 y_0!1_2!1 +93.18533908976354 y_0!2_2!1 +2.925987973509379 y_0!3_2!1 -22.83592326166027 y_0!4_2!1 +82.23604962153487 y_0!5_2!1 +71.28116520712459 y_0!6_2!1 +56.03273853599268 y_0!1_2!2 -4.575609624169942 y_0!2_2!2 +78.38584496446538 y_0!3_2!2 -7.244017319912956 y_0!4_2!2 -61.89119204705145 y_0!5_2!2 +15.935132849886884 y_0!6_2!2 +86.69416876648174 y_0!1_2!3 +34.32299538700377 y_0!2_2!3 +80.69300406253791 y_0!3_2!3 -34.653889524123514 y_0!4_2!3 -59.69892291394232 y_0!5_2!3 -47.919313905886995 y_0!6_2!3 -98.74976229320373 y_0!1_2!4 -34.1461926155429 y_0!2_2!4 -72.2124092614643 y_0!3_2!4 +31.16645590990899 y_0!4_2!4 -57.877514339279635 y_0!5_2!4 +30.646836708153018 y_0!6_2!4 +94.14470962635235 y_0!1_2!5 +50.78831780220864 y_0!2_2!5 -36.04828303005176 y_0!3_2!5 +82.67445408868653 y_0!4_2!5 +97.87590727660688 y_0!5_2!5 +81.26702574931005 y_0!6_2!5 +54.7667101956813 y_0!1_2!6 +86.07425863545447 y_0!2_2!6 +41.083151723280224 y_0!3_2!6 +68.22843868353442 y_0!4_2!6 +59.99007887538218 y_0!5_2!6 -56.67513390037986 y_0!6_2!6 + lambda_1!4 - mu_1 = 0
 epc_1!5: +19.909125261610683 y_0!1_2!1 +49.66378975571797 y_0!2_2!1 -52.79736748688488 y_0!3_2!1 -71.6380244727174 y_0!4_2!1 -24.64710863596673 y_0!5_2!1 +9.511329703392633 y_0!6_2!1 +71.78292831675412 y_0!1_2!2 +75.33045269359656 y_0!2_2!2 +61.90225170607445 y_0!3_2!2 -14.256950704611413 y_0!4_2!2 -16.668148910910844 y_0!5_2!2 +22.53516308151366 y_0!6_2!2 -17.960389518139053 y_0!1_2!3 +64.66405063006908 y_0!2_2!3 -10.239862046730423 y_0!3_2!3 +83.99542104356667 y_0!4_2!3 +50.050858042512715 y_0!5_2!3 -42.78721012666207 y_0!6_2!3 -32.92170611335574 y_0!1_2!4 -48.484284658740705 y_0!2_2!4 +90.58396086623287 y_0!3_2!4 -83.85534691019554 y_0!4_2!4 -30.690118296315447 y_0!5_2!4 +4.958038645952428 y_0!6_2!4 -40.82660671058853 y_0!1_2!5 +26.12083285422362 y_0!2_2!5 +10.818193018698906 y_0!3_2!5 +22.128160157194344 y_0!4_2!5 -25.654432112477778 y_0!5_2!5 -83.4529102200752 y_0!6_2!5 +87.3357659947103 y_0!1_2!6 -43.196930538209166 y_0!2_2!6 -7.507415956019983 y_0!3_2!6 -24.97929492926461 y_0!4_2!6 -32.800501511115684 y_0!5_2!6 +40.9132559789482 y_0!6_2!6 + lambda_1!5 - mu_1 = 0
 epc_1!6: -28.635438414774896 y_0!1_2!1 +36.77588879172089 y_0!2_2!1 +4.845207971364204 y_0!3_2!1 +65.93272861647759 y_0!4_2!1 +64.14691210555549 y_0!5_2!1 -14.28638099004715 y_0!6_2!1 +40.269914131810594 y_0!1_2!2 +59.32617289692925 y_0!2_2!2 -10.919778613414849 y_0!3_2!2 -30.79862544059138 y_0!4_2!2 -73.20452040293543 y_0!5_2!2 +56.90514360861073 y_0!6_2!2 -35.13301085967211 y_0!1_2!3 +32.96936424170454 y_0!2_2!3 +25.492258871800843 y_0!3_2!3 +90.39613253804578 y_0!4_2!3 -67.83164435215451 y_0!5_2!3 -99.40783173287275 y_0!6_2!3 +79.10011093118513 y_0!1_2!4 +83.65161722825223 y_0!2_2!4 +74.45292348298196 y_0!3_2!4 -45.27471762132016 y_0!4_2!4 +26.73349233484643 y_0!5_2!4 -22.132213606453945 y_0!6_2!4 +82.3498483561003 y_0!1_2!5 -89.8870571556466 y_0!2_2!5 +87.25031589653648 y_0!3_2!5 -67.1758675035034 y_0!4_2!5 +69.97902819931733 y_0!5_2!5 +14.274904025576078 y_0!6_2!5 +32.26151627693105 y_0!1_2!6 -41.65699764864523 y_0!2_2!6 +90.11061829524837 y_0!3_2!6 +91.11692039987634 y_0!4_2!6 -12.712379479901358 y_0!5_2!6 -33.16802434662824 y_0!6_2!6 + lambda_1!6 - mu_1 = 0
 dc_1: x_1!1 + x_1!2 + x_1!3 + x_1!4 + x_1!5 + x_1!6 = 1
 bc_1!1: lambda_1!1 +299.1040470861904 x_1!1 <= 299.1040470861904
 bc_1!2: lambda_1!2 +299.1040470861904 x_1!2 <= 299.1040470861904
 bc_1!3: lambda_1!3 +299.1040470861904 x_1!3 <= 299.1040470861904
 bc_1!4: lambda_1!4 +299.1040470861904 x_1!4 <= 299.1040470861904
 bc_1!5: lambda_1!5 +299.1040470861904 x_1!5 <= 299.1040470861904
 bc_1!6: lambda_1!6 +299.1040470861904 x_1!6 <= 299.1040470861904
 sum_1!1: y_0!1_2!1 - x_0!1 - x_2!1 >= -1
 idk_1!1!0: y_0!1_2!1 - x_0!1 <= 0
 idk_1!1!2: y_0!1_2!1 - x_2!1 <= 0
 sum_1!2: y_0!2_2!1 - x_0!2 - x_2!1 >= -1
 idk_1!2!0: y_0!2_2!1 - x_0!2 <= 0
 idk_1!2!2: y_0!2_2!1 - x_2!1 <= 0
 sum_1!3: y_0!3_2!1 - x_0!3 - x_2!1 >= -1
 idk_1!3!0: y_0!3_2!1 - x_0!3 <= 0
 idk_1!3!2: y_0!3_2!1 - x_2!1 <= 0
 sum_1!4: y_0!4_2!1 - x_0!4 - x_2!1 >= -1
 idk_1!4!0: y_0!4_2!1 - x_0!4 <= 0
 idk_1!4!2: y_0!4_2!1 - x_2!1 <= 0
 sum_1!5: y_0!5_2!1 - x_0!5 - x_2!1 >= -1
 idk_1!5!0: y_0!5_2!1 - x_0!5 <= 0
 idk_1!5!2: y_0!5_2!1 - x_2!1 <= 0
 sum_1!6: y_0!6_2!1 - x_0!6 - x_2!1 >= -1
 idk_1!6!0: y_0!6_2!1 - x_0!6 <= 0
 idk_1!6!2: y_0!6_2!1 - x_2!1 <= 0
 sum_1!7: y_0!1_2!2 - x_0!1 - x_2!2 >= -1
 idk_1!7!0: y_0!1_2!2 - x_0!1 <= 0
 idk_1!7!2: y_0!1_2!2 - x_2!2 <= 0
 sum_1!8: y_0!2_2!2 - x_0!2 - x_2!2 >= -1
 idk_1!8!0: y_0!2_2!2 - x_0!2 <= 0
 idk_1!8!2: y_0!2_2!2 - x_2!2 <= 0
 sum_1!9: y_0!3_2!2 - x_0!3 - x_2!2 >= -1
 idk_1!9!0: y_0!3_2!2 - x_0!3 <= 0
 idk_1!9!2: y_0!3_2!2 - x_2!2 <= 0
 sum_1!10: y_0!4_2!2 - x_0!4 - x_2!2 >= -1
 idk_1!10!0: y_0!4_2!2 - x_0!4 <= 0
 idk_1!10!2: y_0!4_2!2 - x_2!2 <= 0
 sum_1!11: y_0!5_2!2 - x_0!5 - x_2!2 >= -1
 idk_1!11!0: y_0!5_2!2 - x_0!5 <= 0
 idk_1!11!2: y_0!5_2!2 - x_2!2 <= 0
 sum_1!12: y_0!6_2!2 - x_0!6 - x_2!2 >= -1
 idk_1!12!0: y_0!6_2!2 - x_0!6 <= 0
 idk_1!12!2: y_0!6_2!2 - x_2!2 <= 0
 sum_1!13: y_0!1_2!3 - x_0!1 - x_2!3 >= -1
 idk_1!13!0: y_0!1_2!3 - x_0!1 <= 0
 idk_1!13!2: y_0!1_2!3 - x_2!3 <= 0
 sum_1!14: y_0!2_2!3 - x_0!2 - x_2!3 >= -1
 idk_1!14!0: y_0!2_2!3 - x_0!2 <= 0
 idk_1!14!2: y_0!2_2!3 - x_2!3 <= 0
 sum_1!15: y_0!3_2!3 - x_0!3 - x_2!3 >= -1
 idk_1!15!0: y_0!3_2!3 - x_0!3 <= 0
 idk_1!15!2: y_0!3_2!3 - x_2!3 <= 0
 sum_1!16: y_0!4_2!3 - x_0!4 - x_2!3 >= -1
 idk_1!16!0: y_0!4_2!3 - x_0!4 <= 0
 idk_1!16!2: y_0!4_2!3 - x_2!3 <= 0
 sum_1!17: y_0!5_2!3 - x_0!5 - x_2!3 >= -1
 idk_1!17!0: y_0!5_2!3 - x_0!5 <= 0
 idk_1!17!2: y_0!5_2!3 - x_2!3 <= 0
 sum_1!18: y_0!6_2!3 - x_0!6 - x_2!3 >= -1
 idk_1!18!0: y_0!6_2!3 - x_0!6 <= 0
 idk_1!18!2: y_0!6_2!3 - x_2!3 <= 0
 sum_1!19: y_0!1_2!4 - x_0!1 - x_2!4 >= -1
 idk_1!19!0: y_0!1_2!4 - x_0!1 <= 0
 idk_1!19!2: y_0!1_2!4 - x_2!4 <= 0
 sum_1!20: y_0!2_2!4 - x_0!2 - x_2!4 >= -1
 idk_1!20!0: y_0!2_2!4 - x_0!2 <= 0
 idk_1!20!2: y_0!2_2!4 - x_2!4 <= 0
 sum_1!21: y_0!3_2!4 - x_0!3 - x_2!4 >= -1
 idk_1!21!0: y_0!3_2!4 - x_0!3 <= 0
 idk_1!21!2: y_0!3_2!4 - x_2!4 <= 0
 sum_1!22: y_0!4_2!4 - x_0!4 - x_2!4 >= -1
 idk_1!22!0: y_0!4_2!4 - x_0!4 <= 0
 idk_1!22!2: y_0!4_2!4 - x_2!4 <= 0
 sum_1!23: y_0!5_2!4 - x_0!5 - x_2!4 >= -1
 idk_1!23!0: y_0!5_2!4 - x_0!5 <= 0
 idk_1!23!2: y_0!5_2!4 - x_2!4 <= 0
 sum_1!24: y_0!6_2!4 - x_0!6 - x_2!4 >= -1
 idk_1!24!0: y_0!6_2!4 - x_0!6 <= 0
 idk_1!24!2: y_0!6_2!4 - x_2!4 <= 0
 sum_1!25: y_0!1_2!5 - x_0!1 - x_2!5 >= -1
 idk_1!25!0: y_0!1_2!5 - x_0!1 <= 0
 idk_1!25!2: y_0!1_2!5 - x_2!5 <= 0
 sum_1!26: y_0!2_2!5 - x_0!2 - x_2!5 >= -1
 idk_1!26!0: y_0!2_2!5 - x_0!2 <= 0
 idk_1!26!2: y_0!2_2!5 - x_2!5 <= 0
 sum_1!27: y_0!3_2!5 - x_0!3 - x_2!5 >= -1
 idk_1!27!0: y_0!3_2!5 - x_0!3 <= 0
 idk_1!27!2: y_0!3_2!5 - x_2!5 <= 0
 sum_1!28: y_0!4_2!5 - x_0!4 - x_2!5 >= -1
 idk_1!28!0: y_0!4_2!5 - x_0!4 <= 0
 idk_1!28!2: y_0!4_2!5 - x_2!5 <= 0
 sum_1!29: y_0!5_2!5 - x_0!5 - x_2!5 >= -1
 idk_1!29!0: y_0!5_2!5 - x_0!5 <= 0
 idk_1!29!2: y_0!5_2!5 - x_2!5 <= 0
 sum_1!30: y_0!6_2!5 - x_0!6 - x_2!5 >= -1
 idk_1!30!0: y_0!6_2!5 - x_0!6 <= 0
 idk_1!30!2: y_0!6_2!5 - x_2!5 <= 0
 sum_1!31: y_0!1_2!6 - x_0!1 - x_2!6 >= -1
 idk_1!31!0: y_0!1_2!6 - x_0!1 <= 0
 idk_1!31!2: y_0!1_2!6 - x_2!6 <= 0
 sum_1!32: y_0!2_2!6 - x_0!2 - x_2!6 >= -1
 idk_1!32!0: y_0!2_2!6 - x_0!2 <= 0
 idk_1!32!2: y_0!2_2!6 - x_2!6 <= 0
 sum_1!33: y_0!3_2!6 - x_0!3 - x_2!6 >= -1
 idk_1!33!0: y_0!3_2!6 - x_0!3 <= 0
 idk_1!33!2: y_0!3_2!6 - x_2!6 <= 0
 sum_1!34: y_0!4_2!6 - x_0!4 - x_2!6 >= -1
 idk_1!34!0: y_0!4_2!6 - x_0!4 <= 0
 idk_1!34!2: y_0!4_2!6 - x_2!6 <= 0
 sum_1!35: y_0!5_2!6 - x_0!5 - x_2!6 >= -1
 idk_1!35!0: y_0!5_2!6 - x_0!5 <= 0
 idk_1!35!2: y_0!5_2!6 - x_2!6 <= 0
 sum_1!36: y_0!6_2!6 - x_0!6 - x_2!6 >= -1
 idk_1!36!0: y_0!6_2!6 - x_0!6 <= 0
 idk_1!36!2: y_0!6_2!6 - x_2!6 <= 0
 epc_2!1: +94.39175329235374 y_0!1_1!1 -21.10064099248909 y_0!2_1!1 +9.323715959779548 y_0!3_1!1 +21.971767248529247 y_0!4_1!1 -28.31034507205399 y_0!5_1!1 +91.08453460051737 y_0!6_1!1 +3.9606418777992474 y_0!1_1!2 +35.419020147421094 y_0!2_1!2 -38.41922196338934 y_0!3_1!2 -77.83590161627046 y_0!4_1!2 +32.844722015078474 y_0!5_1!2 -28.210577499312862 y_0!6_1!2 -18.457211363270304 y_0!1_1!3 -80.65784111674763 y_0!2_1!3 +92.16483027244155 y_0!3_1!3 +27.27218092221561 y_0!4_1!3 +30.82692770146798 y_0!5_1!3 -84.25743957852254 y_0!6_1!3 +53.48483241742261 y_0!1_1!4 +36.64600001271671 y_0!2_1!4 +47.71378674322696 y_0!3_1!4 +98.60031125538907 y_0!4_1!4 +78.53004424483254 y_0!5_1!4 -0.11154200574013373 y_0!6_1!4 -12.555803509455444 y_0!1_1!5 +89.36802945215604 y_0!2_1!5 +54.08424695044428 y_0!3_1!5 +43.40247219336632 y_0!4_1!5 +30.096418245602706 y_0!5_1!5 -91.66130227111596 y_0!6_1!5 +76.28792739053628 y_0!1_1!6 -51.6755854424713 y_0!2_1!6 +28.65747355305072 y_0!3_1!6 -10.449803459838904 y_0!4_1!6 +61.48018672238004 y_0!5_1!6 +43.41748780902864 y_0!6_1!6 + lambda_2!1 - mu_2 = 0
 epc_2!2: +52.262972688329626 y_0!1_1!1 -1.3490901243352198 y_0!2_1!1 +52.328133946089935 y_0!3_1!1 +18.84319043132669 y_0!4_1!1 -31.943629901131914 y_0!5_1!1 -12.929911557858873 y_0!6_1!1 -76.66072768722472 y_0!1_1!2 +69.64253806460226 y_0!2_1!2 +37.345110798605106 y_0!3_1!2 -9.74964154802808 y_0!4_1!2 -31.046151935089654 y_0!5_1!2 -75.95201037790558 y_0!6_1!2 +77.70777589619448 y_0!1_1!3 -54.13583604792136 y_0!2_1!3 +80.26581552757307 y_0!3_1!3 -48.21405613496892 y_0!4_1!3 +62.432775005576815 y_0!5_1!3 -30.15028778034936 y_0!6_1!3 +83.02248843537382 y_0!1_1!4 +81.31877167363317 y_0!2_1!4 +92.14583614082747 y_0!3_1!4 -16.23371228661871 y_0!4_1!4 -80.09532131497807 y_0!5_1!4 +82.5144520110093 y_0!6_1!4 +80.70993763071311 y_0!1_1!5 +36.382638844840955 y_0!2_1!5 -85.80952990701394 y_0!3_1!5 +92.52090810967616 y_0!4_1!5 +48.45812387772014 y_0!5_1!5 +5.576414513748446 y_0!6_1!5 -50.2424114419898 y_0!1_1!6 +77.66116326229081 y_0!2_1!6 +10.54589375714184 y_0!3_1!6 -96.46344390739242 y_0!4_1!6 +43.98069038759334 y_0!5_1!6 +32.954607741043134 y_0!6_1!6 + lambda_2!2 - mu_2 = 0
 epc_2!3: +86.68676601910843 y_0!1_1!1 -61.07536695076152 y_0!2_1!1 +75.43152462259135 y_0!3_1!1 -76.59141252732853 y_0!4_1!1 +40.76087209594422 y_0!5_1!1 +14.065209569469943 y_0!6_1!1 -42.60845311744106 y_0!1_1!2 +67.51375740236526 y_0!2_1!2 -15.236768915381617 y_0!3_1!2 +53.39940366341901 y_0!4_1!2 -78.9619983169179 y_0!5_1!2 +53.415508496947666 y_0!6_1!2 +51.28473195198836 y_0!1_1!3 +71.34974499923698 y_0!2_1!3 -11.233826481634111 y_0!3_1!3 -37.976974896015456 y_0!4_1!3 +52.195591841948556 y_0!5_1!3 -6.591299857213869 y_0!6_1!3 -21.53801277709661 y_0!1_1!4 +48.85647344542926 y_0!2_1!4 +98.42745255206484 y_0!3_1!4 -56.32291616647338 y_0!4_1!4 +83.64071920884683 y_0!5_1!4 -92.27808164238596 y_0!6_1!4 +56.726966503187924 y_0!1_1!5 +5.24279917725157 y_0!2_1!5 +22.219200535856558 y_0!3_1!5 -95.65736482009028 y_0!4_1!5 -36.01978586965458 y_0!5_1!5 -53.29566872286349 y_0!6_1!5 -61.709658208543104 y_0!1_1!6 -73.1354343147903 y_0!2_1!6 -91.81610943939602 y_0!3_1!6 +88.80748866164475 y_0!4_1!6 +76.62051461549487 y_0!5_1!6 +52.69265682842769 y_0!6_1!6 + lambda_2!3 - mu_2 = 0
 epc_2!4: +17.365757662419796 y_0!1_1!1 -40.42202066395535 y_0!2_1!1 -71.30826893102181 y_0!3_1!1 -22.596021855367553 y_0!4_1!1 +73.73338997218573 y_0!5_1!1 +54.49644291737678 y_0!6_1!1 +71.96227789274053 y_0!1_1!2 -8.477495929730011 y_0!2_1!2 +90.05685989583333 y_0!3_1!2 +80.17662651762706 y_0!4_1!2 +90.62088899836763 y_0!5_1!2 -75.27046645042263 y_0!6_1!2 -51.23249370933889 y_0!1_1!3 -84.328513163618 y_0!2_1!3 -23.53877237442478 y_0!3_1!3 +4.622811616808775 y_0!4_1!3 -88.5184207240579 y_0!5_1!3 -25.05400383761949 y_0!6_1!3 +62.6048898670538 y_0!1_1!4 -1.5735791541604698 y_0!2_1!4 +57.63398633174478 y_0!3_1!4 +97.21955514101214 y_0!4_1!4 +40.652810540838516 y_0!5_1!4 -78.90739059351235 y_0!6_1!4 -94.36590101580396 y_0!1_1!5 -71.20501751268253 y_0!2_1!5 -46.55357847191603 y_0!3_1!5 +2.025818613831305 y_0!4_1!5 +8.431942109631436 y_0!5_1!5 -9.344980411832978 y_0!6_1!5 +40.97160190347148 y_0!1_1!6 -94.80187376801234 y_0!2_1!6 -2.3901311187343595 y_0!3_1!6 +50.521492909276844 y_0!4_1!6 -53.96018883708216 y_0!5_1!6 -6.285459310927337 y_0!6_1!6 + lambda_2!4 - mu_2 = 0
 epc_2!5: -23.908822755785792 y_0!1_1!1 +36.236206702614396 y_0!2_1!1 +59.23264308358807 y_0!3_1!1 -80.07453325129885 y_0!4_1!1 -70.71616468077988 y_0!5_1!1 -60.763194702495426 y_0!6_1!1 +99.19730535083085 y_0!1_1!2 +5.972915419988439 y_0!2_1!2 -62.04601890230539 y_0!3_1!2 -37.43518089908218 y_0!4_1!2 -15.26763951549421 y_0!5_1!2 -42.80411892733944 y_0!6_1!2 +33.350444223895465 y_0!1_1!3 -32.742759983813755 y_0!2_1!3 +59.204374968947945 y_0!3_1!3 +22.10962410415398 y_0!4_1!3 -63.9219176252851 y_0!5_1!3 +64.13700699500293 y_0!6_1!3 -24.312079825211484 y_0!1_1!4 -22.287635197478878 y_0!2_1!4 +64.94427346688536 y_0!3_1!4 -15.068168866385179 y_0!4_1!4 +42.82274764664638 y_0!5_1!4 +77.66226065197424 y_0!6_1!4 +90.47957387449264 y_0!1_1!5 +47.314869992006635 y_0!2_1!5 -33.266353185237534 y_0!3_1!5 -46.59364215242328 y_0!4_1!5 -59.94008116646747 y_0!5_1!5 -97.12518098958236 y_0!6_1!5 -96.54003636967789 y_0!1_1!6 +4.632387192769727 y_0!2_1!6 -62.465483479634344 y_0!3_1!6 +25.187083625375678 y_0!4_1!6 -40.80661344746774 y_0!5_1!6 +55.45333801093645 y_0!6_1!6 + lambda_2!5 - mu_2 = 0
 epc_2!6: +79.9899851360054 y_0!1_1!1 +57.071647153409856 y_0!2_1!1 -57.77582880669689 y_0!3_1!1 -13.476228323667243 y_0!4_1!1 -82.2420326999989 y_0!5_1!1 +91.78748586815479 y_0!6_1!1 +80.84744098984172 y_0!1_1!2 +80.82592422788105 y_0!2_1!2 -89.0001082855439 y_0!3_1!2 -87.67273382401164 y_0!4_1!2 -24.417067885069457 y_0!5_1!2 -57.84735672031225 y_0!6_1!2 +87.1792480201544 y_0!1_1!3 -43.85972514993603 y_0!2_1!3 +51.91291762013583 y_0!3_1!3 +60.35342398932565 y_0!4_1!3 -81.54177682406088 y_0!5_1!3 -90.47453797569528 y_0!6_1!3 +21.344790616494038 y_0!1_1!4 +6.1986412413066745 y_0!2_1!4 -23.46791224947758 y_0!3_1!4 -33.399348460811225 y_0!4_1!4 -56.04379718467718 y_0!5_1!4 +41.25640259750486 y_0!6_1!4 -95.35858938999104 y_0!1_1!5 -87.83203190323682 y_0!2_1!5 +14.682330084441958 y_0!3_1!5 +24.465237798216478 y_0!4_1!5 -27.52148006443022 y_0!5_1!5 -94.04039817674908 y_0!6_1!5 -31.54370005441966 y_0!1_1!6 +87.12514470881374 y_0!2_1!6 -50.56851245827922 y_0!3_1!6 -42.337875390317635 y_0!4_1!6 +15.91548437959851 y_0!5_1!6 +31.818401745333233 y_0!6_1!6 + lambda_2!6 - mu_2 = 0
 dc_2: x_2!1 + x_2!2 + x_2!3 + x_2!4 + x_2!5 + x_2!6 = 1
 bc_2!1: lambda_2!1 +299.1040470861904 x_2!1 <= 299.1040470861904
 bc_2!2: lambda_2!2 +299.1040470861904 x_2!2 <= 299.1040470861904
 bc_2!3: lambda_2!3 +299.1040470861904 x_2!3 <= 299.1040470861904
 bc_2!4: lambda_2!4 +299.1040470861904 x_2!4 <= 299.1040470861904
 bc_2!5: lambda_2!5 +299.1040470861904 x_2!5 <= 299.1040470861904
 bc_2!6: lambda_2!6 +299.1040470861904 x_2!6 <= 299.1040470861904
 sum_2!1: y_0!1_1!1 - x_0!1 - x_1!1 >= -1
 idk_2!1!0: y_0!1_1!1 - x_0!1 <= 0
 idk_2!1!1: y_0!1_1!1 - x_1!1 <= 0
 sum_2!2: y_0!2_1!1 - x_0!2 - x_1!1 >= -1
 idk_2!2!0: y_0!2_1!1 - x_0!2 <= 0
 idk_2!2!1: y_0!2_1!1 - x_1!1 <= 0
 sum_2!3: y_0!3_1!1 - x_0!3 - x_1!1 >= -1
 idk_2!3!0: y_0!3_1!1 - x_0!3 <= 0
 idk_2!3!1: y_0!3_1!1 - x_1!1 <= 0
 sum_2!4: y_0!4_1!1 - x_0!4 - x_1!1 >= -1
 idk_2!4!0: y_0!4_1!1 - x_0!4 <= 0
 idk_2!4!1: y_0!4_1!1 - x_1!1 <= 0
 sum_2!5: y_0!5_1!1 - x_0!5 - x_1!1 >= -1
 idk_2!5!0: y_0!5_1!1 - x_0!5 <= 0
 idk_2!5!1: y_0!5_1!1 - x_1!1 <= 0
 sum_2!6: y_0!6_1!1 - x_0!6 - x_1!1 >= -1
 idk_2!6!0: y_0!6_1!1 - x_0!6 <= 0
 idk_2!6!1: y_0!6_1!1 - x_1!1 <= 0
 sum_2!7: y_0!1_1!2 - x_0!1 - x_1!2 >= -1
 idk_2!7!0: y_0!1_1!2 - x_0!1 <= 0
 idk_2!7!1: y_0!1_1!2 - x_1!2 <= 0
 sum_2!8: y_0!2_1!2 - x_0!2 - x_1!2 >= -1
 idk_2!8!0: y_0!2_1!2 - x_0!2 <= 0
 idk_2!8!1: y_0!2_1!2 - x_1!2 <= 0
 sum_2!9: y_0!3_1!2 - x_0!3 - x_1!2 >= -1
 idk_2!9!0: y_0!3_1!2 - x_0!3 <= 0
 idk_2!9!1: y_0!3_1!2 - x_1!2 <= 0
 sum_2!10: y_0!4_1!2 - x_0!4 - x_1!2 >= -1
 idk_2!10!0: y_0!4_1!2 - x_0!4 <= 0
 idk_2!10!1: y_0!4_1!2 - x_1!2 <= 0
 sum_2!11: y_0!5_1!2 - x_0!5 - x_1!2 >= -1
 idk_2!11!0: y_0!5_1!2 - x_0!5 <= 0
 idk_2!11!1: y_0!5_1!2 - x_1!2 <= 0
 sum_2!12: y_0!6_1!2 - x_0!6 - x_1!2 >= -1
 idk_2!12!0: y_0!6_1!2 - x_0!6 <= 0
 idk_2!12!1: y_0!6_1!2 - x_1!2 <= 0
 sum_2!13: y_0!1_1!3 - x_0!1 - x_1!3 >= -1
 idk_2!13!0: y_0!1_1!3 - x_0!1 <= 0
 idk_2!13!1: y_0!1_1!3 - x_1!3 <= 0
 sum_2!14: y_0!2_1!3 - x_0!2 - x_1!3 >= -1
 idk_2!14!0: y_0!2_1!3 - x_0!2 <= 0
 idk_2!14!1: y_0!2_1!3 - x_1!3 <= 0
 sum_2!15: y_0!3_1!3 - x_0!3 - x_1!3 >= -1
 idk_2!15!0: y_0!3_1!3 - x_0!3 <= 0
 idk_2!15!1: y_0!3_1!3 - x_1!3 <= 0
 sum_2!16: y_0!4_1!3 - x_0!4 - x_1!3 >= -1
 idk_2!16!0: y_0!4_1!3 - x_0!4 <= 0
 idk_2!16!1: y_0!4_1!3 - x_1!3 <= 0
 sum_2!17: y_0!5_1!3 - x_0!5 - x_1!3 >= -1
 idk_2!17!0: y_0!5_1!3 - x_0!5 <= 0
 idk_2!17!1: y_0!5_1!3 - x_1!3 <= 0
 sum_2!18: y_0!6_1!3 - x_0!6 - x_1!3 >= -1
 idk_2!18!0: y_0!6_1!3 - x_0!6 <= 0
 idk_2!18!1: y_0!6_1!3 - x_1!3 <= 0
 sum_2!19: y_0!1_1!4 - x_0!1 - x_1!4 >= -1
 idk_2!19!0: y_0!1_1!4 - x_0!1 <= 0
 idk_2!19!1: y_0!1_1!4 - x_1!4 <= 0
 sum_2!20: y_0!2_1!4 - x_0!2 - x_1!4 >= -1
 idk_2!20!0: y_0!2_1!4 - x_0!2 <= 0
 idk_2!20!1: y_0!2_1!4 - x_1!4 <= 0
 sum_2!21: y_0!3_1!4 - x_0!3 - x_1!4 >= -1
 idk_2!21!0: y_0!3_1!4 - x_0!3 <= 0
 idk_2!21!1: y_0!3_1!4 - x_1!4 <= 0
 sum_2!22: y_0!4_1!4 - x_0!4 - x_1!4 >= -1
 idk_2!22!0: y_0!4_1!4 - x_0!4 <= 0
 idk_2!22!1: y_0!4_1!4 - x_1!4 <= 0
 sum_2!23: y_0!5_1!4 - x_0!5 - x_1!4 >= -1
 idk_2!23!0: y_0!5_1!4 - x_0!5 <= 0
 idk_2!23!1: y_0!5_1!4 - x_1!4 <= 0
 sum_2!24: y_0!6_1!4 - x_0!6 - x_1!4 >= -1
 idk_2!24!0: y_0!6_1!4 - x_0!6 <= 0
 idk_2!24!1: y_0!6_1!4 - x_1!4 <= 0
 sum_2!25: y_0!1_1!5 - x_0!1 - x_1!5 >= -1
 idk_2!25!0: y_0!1_1!5 - x_0!1 <= 0
 idk_2!25!1: y_0!1_1!5 - x_1!5 <= 0
 sum_2!26: y_0!2_1!5 - x_0!2 - x_1!5 >= -1
 idk_2!26!0: y_0!2_1!5 - x_0!2 <= 0
 idk_2!26!1: y_0!2_1!5 - x_1!5 <= 0
 sum_2!27: y_0!3_1!5 - x_0!3 - x_1!5 >= -1
 idk_2!27!0: y_0!3_1!5 - x_0!3 <= 0
 idk_2!27!1: y_0!3_1!5 - x_1!5 <= 0
 sum_2!28: y_0!4_1!5 - x_0!4 - x_1!5 >= -1
 idk_2!28!0: y_0!4_1!5 - x_0!4 <= 0
 idk_2!28!1: y_0!4_1!5 - x_1!5 <= 0
 sum_2!29: y_0!5_1!5 - x_0!5 - x_1!5 >= -1
 idk_2!29!0: y_0!5_1!5 - x_0!5 <= 0
 idk_2!29!1: y_0!5_1!5 - x_1!5 <= 0
 sum_2!30: y_0!6_1!5 - x_0!6 - x_1!5 >= -1
 idk_2!30!0: y_0!6_1!5 - x_0!6 <= 0
 idk_2!30!1: y_0!6_1!5 - x_1!5 <= 0
 sum_2!31: y_0!1_1!6 - x_0!1 - x_1!6 >= -1
 idk_2!31!0: y_0!1_1!6 - x_0!1 <= 0
 idk_2!31!1: y_0!1_1!6 - x_1!6 <= 0
 sum_2!32: y_0!2_1!6 - x_0!2 - x_1!6 >= -1
 idk_2!32!0: y_0!2_1!6 - x_0!2 <= 0
 idk_2!32!1: y_0!2_1!6 - x_1!6 <= 0
 sum_2!33: y_0!3_1!6 - x_0!3 - x_1!6 >= -1
 idk_2!33!0: y_0!3_1!6 - x_0!3 <= 0
 idk_2!33!1: y_0!3_1!6 - x_1!6 <= 0
 sum_2!34: y_0!4_1!6 - x_0!4 - x_1!6 >= -1
 idk_2!34!0: y_0!4_1!6 - x_0!4 <= 0
 idk_2!34!1: y_0!4_1!6 - x_1!6 <= 0
 sum_2!35: y_0!5_1!6 - x_0!5 - x_1!6 >= -1
 idk_2!35!0: y_0!5_1!6 - x_0!5 <= 0
 idk_2!35!1: y_0!5_1!6 - x_1!6 <= 0
 sum_2!36: y_0!6_1!6 - x_0!6 - x_1!6 >= -1
 idk_2!36!0: y_0!6_1!6 - x_0!6 <= 0
 idk_2!36!1: y_0!6_1!6 - x_1!6 <= 0
Bounds
 mu_0 free
 mu_1 free
 mu_2 free
Binary
 x_0!1 x_0!2 x_0!3 x_0!4 x_0!5 x_0!6 x_1!1 x_1!2 x_1!3 x_1!4 x_1!5 x_1!6 x_2!1 x_2!2 x_2!3 x_2!4 x_2!5 x_2!6
End
